76
360 230
310 330
470 575
540 575
560 710
449 710
360 695
310 725
470 845
540 845
561 1005
449 1005
360 1080
310 1095
470 1165
540 1165
665 1080
730 1095
730 725
665 695
730 330
665 230
540 160
835 230
785 330
945 575
1015 575
1035 710
924 710
835 695
785 725
945 845
1015 845
1036 1005
924 1005
835 1080
785 1095
945 1165
1015 1165
1140 1080
1205 1095
1205 725
1140 695
1205 330
1140 230
1015 160
1310 230
1260 330
1420 575
1490 575
1510 710
1399 710
1310 695
1260 725
1420 845
1490 845
1511 1005
1399 1005
1310 1080
1260 1095
1420 1165
1490 1165
1615 1080
1680 1095
1680 725
1615 695
1680 330
1615 230
1490 160
1980 80
1980 1000
1980 1190
1980 1220
20 1220
20 110
20 80
